NAME : tsp_274_sol.txt
COMMENT : OR-Tools Guided Local Search
TYPE : TOUR
DIMENSION : 50
COST : 5466
STATUS : ROUTING_SUCCESS
GAP : 0.00% (Reference Solution)
TOUR_SECTION
1
15
10
17
14
47
50
43
33
16
39
12
42
20
23
46
5
26
31
49
18
11
3
30
13
28
24
22
32
36
34
40
27
38
35
7
45
8
25
4
44
37
21
6
9
2
41
19
48
29
-1
